c b=4,c=769
p cnf 18 50
4 -8 0
1 3 4 -16 0
2 4 -17 0
-4 8 0
1 3 -4 16 0
1 3 -4 17 0
3 -7 0
2 3 -15 0
1 3 -18 0
2 -3 4 16 0
4 -18 0
2 -3 -4 -16 0
-3 -4 18 0
-3 7 0
2 -3 15 0
2 -3 -17 0
2 -6 0
1 2 -14 0
1 -2 4 -16 0
1 3 4 -17 0
1 -2 -4 16 0
1 -2 3 15 0
-2 -3 4 17 0
1 -3 -4 -17 0
1 -2 -3 -15 0
-2 6 0
1 -2 14 0
1 -5 0
1 -13 0
2 3 4 -16 0
2 3 -4 16 0
2 3 -4 17 0
-1 3 -15 0
2 3 -18 0
-1 -3 15 0
-1 2 14 0
-1 -2 3 4 16 0
-1 -2 3 -4 -16 0
-1 -2 -4 18 0
-1 -2 3 -17 0
-2 -3 4 -16 0
-2 -3 -4 16 0
-1 -2 -4 -17 0
-1 -2 -14 0
-1 5 0
-1 13 0
-9 0
-10 0
-11 0
-12 0
